c 
c G(k,n,p) graph
c graph gen seed     : 23938
c number of vertices : 80
c max number of edges: 1600
c number of classes  : 2
c edge density       : 0.200000
c edge probability   : 0.400000
c data structure     : sparse
c
c           Graph Stats
c number of vertices  : 80
c nonisolated vertices: 80
c number of edges     : 635
c edge density        : 0.200949
c max degree          : 23
c avg degree          : 15.88
c min degree          : 9
p col 80 635
e 1 77
e 1 73
e 1 71
e 1 63
e 1 62
e 1 46
e 1 40
e 1 39
e 1 35
e 1 31
e 1 29
e 1 26
e 1 19
e 1 13
e 1 11
e 1 8
e 2 77
e 2 71
e 2 70
e 2 65
e 2 62
e 2 56
e 2 42
e 2 40
e 2 35
e 2 34
e 2 29
e 2 26
e 2 24
e 2 19
e 2 13
e 2 8
e 2 6
e 2 3
e 3 79
e 3 78
e 3 75
e 3 74
e 3 67
e 3 66
e 3 59
e 3 57
e 3 53
e 3 52
e 3 48
e 3 47
e 3 43
e 3 23
e 3 22
e 3 16
e 3 15
e 3 7
e 4 77
e 4 76
e 4 73
e 4 71
e 4 70
e 4 54
e 4 50
e 4 46
e 4 44
e 4 37
e 4 34
e 4 31
e 4 29
e 4 26
e 4 19
e 4 11
e 4 6
e 5 76
e 5 72
e 5 68
e 5 54
e 5 46
e 5 40
e 5 39
e 5 35
e 5 31
e 5 19
e 5 13
e 5 11
e 5 6
e 6 79
e 6 75
e 6 74
e 6 59
e 6 53
e 6 52
e 6 48
e 6 47
e 6 32
e 6 23
e 6 14
e 6 12
e 7 72
e 7 71
e 7 70
e 7 68
e 7 65
e 7 54
e 7 50
e 7 49
e 7 42
e 7 36
e 7 35
e 7 31
e 7 29
e 7 28
e 7 24
e 7 20
e 7 19
e 7 13
e 7 10
e 8 75
e 8 66
e 8 64
e 8 59
e 8 52
e 8 43
e 8 38
e 8 32
e 8 18
e 8 17
e 8 15
e 8 12
e 9 80
e 9 74
e 9 67
e 9 58
e 9 57
e 9 53
e 9 48
e 9 30
e 9 27
e 9 25
e 9 16
e 9 15
e 10 79
e 10 75
e 10 74
e 10 64
e 10 57
e 10 53
e 10 47
e 10 32
e 10 27
e 10 22
e 10 21
e 10 15
e 10 12
e 11 80
e 11 79
e 11 67
e 11 66
e 11 64
e 11 60
e 11 48
e 11 41
e 11 38
e 11 27
e 11 23
e 11 22
e 11 18
e 11 15
e 11 12
e 12 77
e 12 76
e 12 73
e 12 72
e 12 65
e 12 63
e 12 62
e 12 44
e 12 40
e 12 36
e 12 34
e 12 28
e 12 26
e 12 24
e 13 80
e 13 78
e 13 75
e 13 69
e 13 66
e 13 57
e 13 55
e 13 52
e 13 48
e 13 47
e 13 33
e 13 32
e 13 30
e 13 27
e 13 25
e 13 23
e 13 16
e 14 76
e 14 68
e 14 61
e 14 54
e 14 50
e 14 42
e 14 36
e 14 35
e 14 28
e 14 20
e 15 71
e 15 62
e 15 46
e 15 44
e 15 42
e 15 40
e 15 37
e 15 35
e 15 29
e 15 28
e 15 26
e 15 24
e 15 20
e 15 19
e 16 72
e 16 71
e 16 63
e 16 49
e 16 40
e 16 37
e 16 36
e 16 35
e 16 34
e 17 77
e 17 71
e 17 70
e 17 56
e 17 51
e 17 35
e 17 31
e 17 28
e 17 24
e 17 20
e 18 76
e 18 72
e 18 71
e 18 70
e 18 65
e 18 62
e 18 61
e 18 56
e 18 54
e 18 40
e 18 26
e 18 20
e 18 19
e 19 79
e 19 78
e 19 69
e 19 64
e 19 53
e 19 47
e 19 45
e 19 43
e 19 41
e 19 38
e 19 32
e 19 27
e 19 23
e 19 21
e 20 67
e 20 66
e 20 64
e 20 57
e 20 52
e 20 48
e 20 43
e 20 41
e 20 23
e 20 21
e 21 72
e 21 71
e 21 63
e 21 62
e 21 49
e 21 46
e 21 28
e 21 26
e 21 24
e 22 76
e 22 72
e 22 70
e 22 65
e 22 63
e 22 56
e 22 51
e 22 49
e 22 46
e 22 39
e 22 36
e 22 35
e 22 28
e 22 26
e 23 73
e 23 72
e 23 65
e 23 63
e 23 61
e 23 50
e 23 44
e 23 42
e 23 37
e 23 35
e 23 34
e 23 31
e 23 29
e 23 26
e 24 79
e 24 78
e 24 60
e 24 59
e 24 58
e 24 47
e 24 45
e 24 33
e 24 25
e 25 72
e 25 70
e 25 61
e 25 56
e 25 49
e 25 44
e 25 42
e 25 36
e 25 29
e 26 79
e 26 75
e 26 74
e 26 67
e 26 48
e 26 47
e 26 45
e 26 41
e 26 38
e 26 32
e 26 30
e 27 77
e 27 76
e 27 73
e 27 71
e 27 68
e 27 65
e 27 61
e 27 50
e 27 49
e 27 44
e 27 42
e 27 37
e 27 36
e 27 35
e 27 34
e 28 80
e 28 79
e 28 74
e 28 64
e 28 60
e 28 52
e 28 45
e 28 43
e 28 38
e 28 32
e 28 30
e 29 79
e 29 78
e 29 75
e 29 74
e 29 57
e 29 55
e 29 52
e 29 48
e 29 43
e 30 71
e 30 70
e 30 63
e 30 56
e 30 49
e 30 44
e 30 40
e 31 78
e 31 69
e 31 67
e 31 66
e 31 64
e 31 60
e 31 59
e 31 58
e 31 57
e 31 48
e 31 47
e 31 43
e 31 38
e 32 77
e 32 76
e 32 73
e 32 70
e 32 65
e 32 35
e 32 34
e 33 76
e 33 73
e 33 71
e 33 65
e 33 62
e 33 61
e 33 51
e 33 50
e 33 49
e 33 39
e 33 36
e 34 80
e 34 75
e 34 67
e 34 66
e 34 58
e 34 57
e 34 55
e 34 53
e 34 52
e 34 48
e 34 43
e 35 64
e 35 60
e 35 55
e 35 53
e 35 41
e 36 47
e 36 41
e 37 80
e 37 75
e 37 69
e 37 67
e 37 59
e 37 55
e 37 48
e 37 45
e 37 41
e 37 38
e 38 77
e 38 73
e 38 72
e 38 70
e 38 68
e 38 65
e 38 56
e 38 51
e 38 50
e 38 49
e 38 46
e 38 44
e 38 39
e 39 80
e 39 66
e 39 64
e 39 60
e 39 58
e 39 52
e 39 43
e 39 41
e 40 79
e 40 78
e 40 69
e 40 67
e 40 66
e 40 64
e 40 58
e 40 57
e 40 55
e 40 47
e 40 43
e 41 76
e 41 70
e 41 56
e 41 54
e 41 51
e 41 50
e 41 49
e 42 79
e 42 58
e 43 76
e 43 73
e 43 72
e 43 68
e 43 51
e 43 50
e 43 46
e 44 79
e 44 67
e 44 66
e 44 59
e 44 58
e 44 53
e 44 52
e 44 48
e 44 47
e 44 45
e 45 73
e 45 70
e 45 63
e 45 61
e 45 56
e 45 54
e 45 50
e 45 46
e 46 78
e 46 69
e 46 67
e 46 58
e 46 55
e 46 53
e 46 48
e 47 77
e 47 73
e 47 71
e 47 68
e 47 65
e 47 61
e 47 51
e 47 50
e 48 77
e 48 73
e 48 71
e 48 68
e 48 63
e 49 75
e 49 69
e 49 64
e 49 60
e 49 59
e 49 58
e 49 55
e 49 53
e 50 67
e 50 66
e 50 64
e 50 60
e 50 58
e 50 57
e 50 53
e 50 52
e 51 75
e 51 69
e 51 67
e 51 57
e 51 55
e 51 53
e 52 77
e 52 76
e 52 72
e 52 61
e 53 77
e 53 76
e 53 72
e 53 68
e 53 65
e 53 61
e 53 54
e 54 80
e 54 78
e 54 74
e 54 67
e 54 60
e 54 57
e 55 77
e 55 76
e 55 73
e 55 72
e 55 71
e 55 61
e 55 56
e 56 80
e 56 79
e 56 75
e 56 74
e 56 64
e 56 60
e 56 58
e 57 77
e 57 72
e 57 71
e 58 68
e 58 63
e 59 77
e 59 76
e 59 72
e 59 71
e 59 65
e 60 70
e 60 65
e 60 63
e 60 61
e 61 80
e 61 67
e 61 66
e 62 79
e 62 69
e 62 67
e 63 79
e 63 74
e 63 67
e 63 66
e 63 64
e 64 72
e 64 70
e 64 68
e 65 79
e 65 74
e 65 69
e 65 67
e 65 66
e 66 72
e 67 72
e 67 68
e 68 80
e 68 78
e 68 75
e 68 74
e 69 76
e 69 71
e 69 70
e 70 79
e 71 80
e 72 80
e 72 79
e 72 78
e 72 75
e 73 80
e 74 77
e 75 76
e 76 80
